0	164	69	196	77	146	47	39	169	135	111	
151	0	54	53	165	117	144	95	166	147	34	
80	118	0	21	180	78	50	105	183	65	105	
42	197	78	0	173	132	200	137	172	31	27	
44	66	114	84	0	69	116	99	71	186	125	
72	71	100	119	143	0	163	198	186	65	144	
27	102	118	120	198	149	0	121	116	130	141	
60	102	87	156	148	41	92	0	196	72	39	
37	36	23	56	119	158	81	121	0	171	116	
99	43	151	164	32	67	61	144	62	0	119	
183	111	67	178	178	130	75	71	33	43	0	
